c ! encoding i-pc 250
p cnf 369 420
-251 0
60 -252 0
129 -253 0
67 -254 0
235 -257 0
-240 -259 0
258 -259 0
259 -260 0
21 -260 0
261 -262 0
262 -263 0
-21 -263 0
264 -266 0
265 -266 0
266 -267 0
104 -267 0
240 -268 0
268 -269 0
-104 -269 0
271 0
272 -273 0
273 -274 0
19 -274 0
-19 -275 0
277 -278 0
278 -279 0
5 -279 0
-5 -280 0
14 -282 0
283 -284 0
284 -285 0
-14 -285 0
287 -288 0
288 -289 0
119 -289 0
-119 -290 0
293 -298 0
294 -298 0
295 -298 0
296 -298 0
297 -298 0
270 -299 0
276 -299 0
281 -299 0
286 -299 0
291 -299 0
298 -299 0
251 -301 0
71 -305 0
295 -307 0
296 -307 0
297 -307 0
293 -307 0
270 -308 0
276 -308 0
281 -308 0
286 -308 0
291 -308 0
307 -308 0
-71 -309 0
310 -313 0
312 -313 0
-235 -314 0
251 -319 0
251 -322 0
251 -326 0
251 -331 0
-67 -335 0
251 -338 0
251 -341 0
251 -346 0
251 -349 0
-129 -353 0
-60 -356 0
251 -359 0
251 -362 0
251 -365 0
251 -368 0
1 0
2 0
-3 0
-4 0
6 0
-7 0
-8 0
9 0
10 0
11 0
-12 0
13 0
-15 0
-17 0
-18 0
-20 0
22 0
23 0
24 0
25 0
-26 0
28 0
29 0
-30 0
31 0
32 0
-33 0
34 0
35 0
-36 0
37 0
38 0
-39 0
-40 0
41 0
-42 0
-44 0
45 0
-47 0
49 0
-50 0
51 0
-52 0
-53 0
-54 0
55 0
-56 0
57 0
58 0
-59 0
-61 0
62 0
63 0
64 0
-65 0
66 0
-68 0
-70 0
-72 0
-73 0
74 0
-75 0
-76 0
77 0
78 0
79 0
80 0
81 0
-82 0
-83 0
-84 0
-85 0
86 0
-87 0
88 0
89 0
90 0
-91 0
-92 0
-93 0
-94 0
95 0
97 0
98 0
-99 0
-100 0
-101 0
102 0
103 0
-107 0
-108 0
-109 0
110 0
111 0
-112 0
113 0
-114 0
-115 0
116 0
-117 0
118 0
-120 0
121 0
-122 0
123 0
124 0
-125 0
-126 0
-127 0
128 0
131 0
-132 0
133 0
-135 0
-136 0
137 0
-138 0
-139 0
140 0
141 0
-142 0
-143 0
144 0
-145 0
-146 0
-147 0
148 0
149 0
-150 0
-151 0
152 0
154 0
-155 0
157 0
158 0
159 0
160 0
-161 0
-162 0
163 0
-164 0
165 0
-166 0
-167 0
-168 0
-169 0
170 0
-171 0
172 0
-173 0
174 0
176 0
-177 0
178 0
-179 0
180 0
-181 0
-182 0
183 0
-184 0
-185 0
186 0
-187 0
-188 0
189 0
-190 0
191 0
193 0
-194 0
-195 0
-196 0
197 0
-198 0
-199 0
-200 0
201 0
-202 0
203 0
-204 0
206 0
207 0
-209 0
-210 0
211 0
-212 0
-214 0
215 0
-216 0
219 0
-220 0
-221 0
-222 0
-226 0
227 0
228 0
229 0
-230 0
231 0
232 0
-233 0
234 0
-238 0
239 0
-241 0
243 0
244 0
245 0
-246 0
247 0
248 0
-249 0
-250 0
192 365 0
48 362 0
-361 363 0
-360 361 0
223 359 0
-358 360 0
-357 358 0
218 368 0
-355 356 0
-352 353 0
-348 350 0
225 346 0
-345 347 0
-353 354 0
-342 344 0
105 338 0
130 331 0
-329 330 0
-350 352 0
-339 340 0
-327 329 0
16 326 0
-325 327 0
46 322 0
-321 323 0
-367 369 0
108 324 0
-304 305 0
-363 364 0
-259 260 0
-344 345 0
96 349 0
-335 336 0
-302 304 0
-290 291 0
119 290 0
-288 289 0
-119 289 0
-278 279 0
-255 256 0
-264 266 0
-282 286 0
-262 263 0
-261 262 0
-242 297 0
-265 266 0
-218 367 0
153 341 0
21 263 268 0
43 277 0
93 355 0
-5 279 0
-272 273 0
-292 299 0
-69 294 0
-289 291 0
-271 273 278 284 288 0
-217 258 0
-256 257 0
-330 332 0
-205 318 0
-300 302 0
14 285 0
-263 264 0
-274 276 0
-105 337 0
-266 267 0
-104 267 0
-268 269 0
-46 321 0
-267 270 0
-149 351 0
-21 260 0
-269 270 0
-237 272 0
-175 265 0
19 275 0
-279 281 0
-273 274 0
104 269 0
-337 339 0
-19 274 0
-311 313 0
-275 276 0
-277 278 0
-280 281 0
-284 285 0
-299 300 0
-14 282 0
5 280 0
-134 283 0
-287 288 0
-258 259 0
210 343 0
-313 314 0
-283 284 0
106 293 0
-308 309 0
27 296 0
-334 335 0
-294 298 0
-324 325 0
-236 295 0
-314 315 0
236 295 0
-285 286 0
-27 296 0
242 297 0
-298 299 0
-213 287 0
224 301 0
-34 328 0
-303 304 0
-306 308 0
-307 308 0
-356 357 0
-332 334 0
205 319 0
-340 342 0
-318 320 0
72 303 306 0
-38 333 0
-96 348 0
-106 293 0
-315 317 0
250 311 0
-116 292 306 0
-364 366 0
156 255 0
-9 316 0
